NAME : traveling-santa-2018-prime-paths.30036.tour
COMMENT : Length = 30036
COMMENT : Found by LKH [Keld Helsgaun] Sun Jun 12 19:59:19 2022
TYPE : TOUR
DIMENSION : 100
TOUR_SECTION
1
56
16
9
35
47
26
10
50
33
57
76
82
93
27
3
75
68
87
29
81
18
71
15
53
22
14
90
78
39
2
7
96
61
36
65
86
79
24
21
32
63
4
19
40
5
25
100
8
62
55
37
88
91
89
92
11
74
85
44
31
84
59
13
52
83
69
42
23
72
17
80
34
41
77
43
66
64
95
97
20
73
46
49
38
67
12
48
99
51
30
28
45
54
58
98
70
60
6
94
-1
EOF
